c Generated map
c Size: 9 * 9, weights in range: 1 to 10, walls: True, with ratio 0.1
c dim 3 of 7
c
p sp 81 114
c graph contains 81 nodes and 114 arcs
c
a 1 10 1
a 10 1 1
a 1 2 5
a 2 1 5
a 2 11 4
a 11 2 4
a 2 3 9
a 3 2 9
a 3 12 9
a 12 3 9
a 3 4 8
a 4 3 8
a 4 5 2
a 5 4 2
a 5 14 3
a 14 5 3
a 5 6 4
a 6 5 4
a 6 15 2
a 15 6 2
a 6 7 10
a 7 6 10
a 7 16 7
a 16 7 7
a 7 8 5
a 8 7 5
a 8 17 10
a 17 8 10
a 8 9 8
a 9 8 8
a 9 18 2
a 18 9 2
a 10 19 3
a 19 10 3
a 10 11 3
a 11 10 3
a 11 20 9
a 20 11 9
a 11 12 7
a 12 11 7
a 12 21 4
a 21 12 4
a 14 15 9
a 15 14 9
a 15 24 1
a 24 15 1
a 15 16 4
a 16 15 4
a 16 25 5
a 25 16 5
a 16 17 10
a 17 16 10
a 17 18 8
a 18 17 8
a 18 27 4
a 27 18 4
a 19 28 1
a 28 19 1
a 19 20 9
a 20 19 9
a 20 29 3
a 29 20 3
a 20 21 10
a 21 20 10
a 21 30 6
a 30 21 6
a 21 22 9
a 22 21 9
a 22 31 9
a 31 22 9
a 24 33 1
a 33 24 1
a 24 25 2
a 25 24 2
a 25 34 8
a 34 25 8
a 27 36 10
a 36 27 10
a 28 37 1
a 37 28 1
a 28 29 8
a 29 28 8
a 29 38 4
a 38 29 4
a 29 30 7
a 30 29 7
a 30 39 4
a 39 30 4
a 30 31 7
a 31 30 7
a 31 40 4
a 40 31 4
a 31 32 1
a 32 31 1
a 32 41 6
a 41 32 6
a 32 33 4
a 33 32 4
a 33 34 4
a 34 33 4
a 34 43 10
a 43 34 10
a 36 45 8
a 45 36 8
a 37 46 6
a 46 37 6
a 37 38 9
a 38 37 9
a 38 47 9
a 47 38 9
a 38 39 6
a 39 38 6
a 39 48 1
a 48 39 1
a 39 40 8
a 40 39 8
a 40 49 9
a 49 40 9
a 40 41 1
a 41 40 1
a 41 50 10
a 50 41 10
a 43 44 2
a 44 43 2
a 44 53 1
a 53 44 1
a 44 45 1
a 45 44 1
a 46 55 5
a 55 46 5
a 46 47 5
a 47 46 5
a 47 48 10
a 48 47 10
a 48 57 5
a 57 48 5
a 48 49 5
a 49 48 5
a 49 58 7
a 58 49 7
a 49 50 1
a 50 49 1
a 50 59 3
a 59 50 3
a 50 51 2
a 51 50 2
a 51 60 10
a 60 51 10
a 53 62 6
a 62 53 6
a 55 64 6
a 64 55 6
a 57 66 3
a 66 57 3
a 57 58 5
a 58 57 5
a 58 67 7
a 67 58 7
a 58 59 2
a 59 58 2
a 59 68 9
a 68 59 9
a 59 60 8
a 60 59 8
a 60 69 4
a 69 60 4
a 60 61 7
a 61 60 7
a 61 70 5
a 70 61 5
a 61 62 5
a 62 61 5
a 62 71 3
a 71 62 3
a 62 63 9
a 63 62 9
a 63 72 1
a 72 63 1
a 64 73 9
a 73 64 9
a 64 65 4
a 65 64 4
a 65 74 7
a 74 65 7
a 65 66 6
a 66 65 6
a 66 75 2
a 75 66 2
a 66 67 2
a 67 66 2
a 67 76 8
a 76 67 8
a 67 68 4
a 68 67 4
a 68 77 3
a 77 68 3
a 68 69 4
a 69 68 4
a 69 78 8
a 78 69 8
a 69 70 8
a 70 69 8
a 70 79 9
a 79 70 9
a 70 71 7
a 71 70 7
a 71 80 2
a 80 71 2
a 71 72 8
a 72 71 8
a 72 81 7
a 81 72 7
a 73 74 4
a 74 73 4
a 74 75 8
a 75 74 8
a 75 76 4
a 76 75 4
a 76 77 9
a 77 76 9
a 77 78 10
a 78 77 10
a 78 79 5
a 79 78 5
a 79 80 10
a 80 79 10
a 80 81 3
a 81 80 3
